
******************************************************************************
This program contains Ipopt, a library for large-scale nonlinear optimization.
 Ipopt is released as open source code under the Eclipse Public License (EPL).
         For more information visit http://projects.coin-or.org/Ipopt
******************************************************************************

This is Ipopt version 3.12.6, running with linear solver ma57.

Number of nonzeros in equality constraint Jacobian...:        0
Number of nonzeros in inequality constraint Jacobian.:        0
Number of nonzeros in Lagrangian Hessian.............:        1

Total number of variables............................:        2
                     variables with only lower bounds:        2
                variables with lower and upper bounds:        0
                     variables with only upper bounds:        0
Total number of equality constraints.................:        0
Total number of inequality constraints...............:        0
        inequality constraints with only lower bounds:        0
   inequality constraints with lower and upper bounds:        0
        inequality constraints with only upper bounds:        0

iter    objective    inf_pr   inf_du lg(mu)  ||d||  lg(rg) alpha_du alpha_pr  ls
   0  3.3235677e+00 0.00e+00 3.52e+00  -1.0 0.00e+00    -  0.00e+00 0.00e+00   0
   1  2.7864699e+00 0.00e+00 7.78e-01  -1.0 3.03e-01    -  1.00e+00 4.08e-01f  1
   2  2.7102954e+00 0.00e+00 2.13e-05  -1.7 9.48e-02    -  1.00e+00 1.00e+00f  1
   3  2.6671031e+00 0.00e+00 3.39e-05  -3.8 1.98e-02    -  1.00e+00 1.00e+00f  1
   4  2.6666703e+00 0.00e+00 5.03e-09  -5.7 1.49e-04    -  1.00e+00 1.00e+00f  1
   5  2.6666666e+00 0.00e+00 1.92e-13  -8.6 1.84e-06    -  1.00e+00 1.00e+00f  1

Number of Iterations....: 5

                                   (scaled)                 (unscaled)
Objective...............:   2.6666666190126702e+00    2.6666666190126702e+00
Dual infeasibility......:   1.9184653865522705e-13    1.9184653865522705e-13
Constraint violation....:   0.0000000000000000e+00    0.0000000000000000e+00
Complementarity.........:   2.5067663240486224e-09    2.5067663240486224e-09
Overall NLP error.......:   2.5067663240486224e-09    2.5067663240486224e-09


Number of objective function evaluations             = 6
Number of objective gradient evaluations             = 6
Number of equality constraint evaluations            = 0
Number of inequality constraint evaluations          = 0
Number of equality constraint Jacobian evaluations   = 0
Number of inequality constraint Jacobian evaluations = 0
Number of Lagrangian Hessian evaluations             = 5
Total CPU secs in IPOPT (w/o function evaluations)   =      0.007
Total CPU secs in NLP function evaluations           =      0.000

EXIT: Optimal Solution Found.

 ** SUBROUTINE CUTEST_csetup: Warning. The problem has no general constraints. 
 ** Other tools may be preferable ** 

************************ CUTEst statistics ************************


 Package used            :  IPOPT
 Problem                 :  HS4       
 # variables             =               2
 # constraints           =               0
 # objective functions   =        0.1300000E+02
 # objective gradients   =        0.7000000E+01
 # objective Hessians    =        0.6000000E+01
 # Hessian-vector prdct  =        0.0000000E+00
 # constraints functions =        0.0000000E+00
 # constraints gradients =        0.0000000E+00
 # constraints Hessians  =        0.0000000E+00
 Exit code               =               0
 Final f                 =   0.2666667E+01
 Set up time             =            0.00 seconds
 Solve time              =            0.01 seconds


******************************************************************

System Time =       0.0030000000 s.
